10J3M/DAT/10J3MUNL-15.dat
10 3
23.213 23.213
5.4729 5.4729
2.9882 2.9882
40.9558 40.9558
21.6824 21.6824
42.5568 42.5568
7.3855 7.3855
29.2535 29.2535
19.8797 19.8797
21.9353 21.9353
215.3231