10J3M/SOL/10J3MUNL-15.sol
solution status: optimal solution found
objective value:                     71.7743666666667
x#1#1                               0.848471402518703 	(obj:0)
x#1#3                               0.151528597481297 	(obj:0)
x#2#1                                               1 	(obj:0)
x#3#1                                               1 	(obj:0)
x#4#2                                               1 	(obj:0)
x#5#1                                               1 	(obj:0)
x#6#2                              0.0367759480662703 	(obj:0)
x#6#3                                0.96322405193373 	(obj:0)
x#7#3                                               1 	(obj:0)
x#8#2                                               1 	(obj:0)
x#9#3                                               1 	(obj:0)
x#10#1                                              1 	(obj:0)
z                                    71.7743666666667 	(obj:1)
